Route 1: 20 24 25 27 29 30 28 26 23 22 21 47
Route 2: 67 65 63 74 62 72 61 64 68 66 69
Route 3: 5 8 7 3 10 11 9 6 4 2 1 75
Route 4: 43 42 41 40 44 45 46 48 51 50 52 49
Route 5: 90 87 86 83 82 84 85 89 88 91
Route 6: 98 96 95 94 92 93 97 99 100
Route 7: 32 31 33 35 37 38 39 36 34
Route 8: 55 57 54 53 56 58 60 59
Route 9: 18 17 13 15 19 16 14 12
Route 10: 81 78 76 71 70 73 77 79 80
Vehicles: 10
Distance: 883.67
